--- Job The_Vineyard_In_Ojacastro_GuillermoyLucas_GITT.gms Start 10/30/20 13:57:22 32.2.0 rc62c018 DEX-DEG x86 64bit/Mac OS X
--- Applying:
    /Library/Frameworks/GAMS.framework/Versions/32/Resources/gmsprmun.txt
    /Users/guillermoaldreypastor/Library/Preferences/GAMS/gamsconfig.yaml
--- GAMS Parameters defined
    Input "/Users/guillermoaldreypastor/Desktop/CUARTO/INVESTIGACIÓN OPERATIVA/The_Vineyard_In_Ojacastro_GuillermoyLucas_GITT.gms"
    PageSize 0
    ScrDir "/Users/guillermoaldreypastor/Desktop/CUARTO/INVESTIGACIÓN OPERATIVA/225a/"
    SysDir /Library/Frameworks/GAMS.framework/Versions/32/Resources/
    LogOption 3
    ErrMsg 1
    ErrorLog 99
    IDE 1
    LstTitleLeftAligned 1
GAMS 32.2.0   Copyright (C) 1987-2020 GAMS Development. All rights reserved
Licensee: GAMS Demo license for GUILLERMO ALDREY         G200923|0002CO-GEN
          Universidad Pontificia Comillas, Spain                   DL017849
          /Users/guillermoaldreypastor/Library/Application Support/GAMS/gamslice.txt
          guillermoaldrey@gmail.com, GUILLERMO ALDREY                      
          Demo license for demonstration and instructional purposes only
--- Starting compilation
--- The_Vineyard_In_Ojacastro_GuillermoyLucas_GITT.gms(85) 3 Mb
--- Starting execution: elapsed 0:00:00.011
--- The_Vineyard_In_Ojacastro_GuillermoyLucas_GITT.gms(3) 4 Mb
--- Generating MIP model vineyard
--- The_Vineyard_In_Ojacastro_GuillermoyLucas_GITT.gms(82) 4 Mb
---   51 rows  19 columns  355 non-zeroes
---   18 discrete-columns
--- Executing CPLEX (Solvelink=2): elapsed 0:00:00.019
IBM ILOG CPLEX   32.2.0 rc62c018 Released Aug 26, 2020 DEG x86 64bit/Mac OS X 
*** This solver runs with a demo license. No commercial use.
Cplex 12.10.0.0
Reading data...
Starting Cplex...
Space for names approximately 0.00 Mb
Use option 'names no' to turn use of names off
Version identifier: 12.10.0.0 | 2019-11-26 | 843d4de
CPXPARAM_Advance                                 0
CPXPARAM_Threads                                 1
CPXPARAM_Parallel                                1
CPXPARAM_MIP_Display                             4
CPXPARAM_MIP_Tolerances_AbsMIPGap                0
CPXPARAM_MIP_Tolerances_MIPGap                   0
CPXPARAM_WorkDir                                 "/Users/guillermoaldreypastor/Desktop/CUARTO/INVESTIGACIO%cc%81N OPERATIVA/225a/"
Tried aggregator 1 time.
MIP Presolve eliminated 51 rows and 19 columns.
MIP Presolve modified 79 coefficients.
All rows and columns eliminated.
Presolve time = 0.00 sec. (0.12 ticks)
Root node processing (before b&c):
  Real time             =    0.00 sec. (0.13 ticks)
Sequential b&c:
  Real time             =    0.00 sec. (0.00 ticks)
                          ------------
Total (root+branch&cut) =    0.00 sec. (0.13 ticks)
MIP status(101): integer optimal solution
Cplex Time: 0.00sec (det. 0.13 ticks)
Fixing integer variables, and solving final LP...
Version identifier: 12.10.0.0 | 2019-11-26 | 843d4de
CPXPARAM_Advance                                 2
CPXPARAM_Threads                                 1
CPXPARAM_Parallel                                1
CPXPARAM_MIP_Display                             4
CPXPARAM_MIP_Tolerances_AbsMIPGap                0
CPXPARAM_MIP_Tolerances_MIPGap                   0
CPXPARAM_WorkDir                                 "/Users/guillermoaldreypastor/Desktop/CUARTO/INVESTIGACIO%cc%81N OPERATIVA/225a/"
Tried aggregator 1 time.
LP Presolve eliminated 51 rows and 19 columns.
All rows and columns eliminated.
Presolve time = 0.00 sec. (0.03 ticks)
Fixed MIP status(1): optimal
Cplex Time: 0.00sec (det. 0.05 ticks)
Proven optimal solution.
MIP Solution:        26800.000000    (0 iterations, 0 nodes)
Final Solve:         26800.000000    (0 iterations)
Best possible:       26800.000000
Absolute gap:            0.000000
Relative gap:            0.000000
--- Reading solution for model vineyard
--- Executing after solve: elapsed 0:00:00.063
--- The_Vineyard_In_Ojacastro_GuillermoyLucas_GITT.gms(84) 4 Mb
*** Status: Normal completion
--- Job The_Vineyard_In_Ojacastro_GuillermoyLucas_GITT.gms Stop 10/30/20 13:57:22 elapsed 0:00:00.064
